experiments/loan_acquisition/experiments_appendix/Instance6/mmc_encoding/mmc_cegqs_0.dimacs
c max 185  186  187  188  189  190  191  192  230  231  232  233  234  235  236  237  238  239  240  241  255  257  259  260  274  276  278  279 0
c ind 424  425  426  429  430  431  432  435  436  437  440  441  442  443  446  447  448  449  452  453  454  457  458  459  462  463  464  465  468  469  470  472  473  474  475  476 0
c This is a CNF SAT formula in the DIMACS CNF format,
c produced with the bc2cnf translator by Tommi Junttila;
c see http://users.ics.aalto.fi/tjunttil/circuits/index.html
c phi_Gamma_det <-> 1
c phi_Gamma <-> 1
c phi_T_feature_det <-> 1
c phi_T_transitions <-> 1
c phi_T_transitions_consistency <-> 1
c phi_T <-> 1
c phi_sim_leaves <-> 1
c phi_sim_transition <-> 1
c phi_sim <-> 1
c FORMULA <-> 1
c pi_1 <-> 2
c pi_0 <-> 100
c tau_1_3_approved_1 <-> 185
c tau_1_3_approved_0 <-> 186
c tau_1_2_approved_1 <-> 187
c tau_1_2_approved_0 <-> 188
c tau_1_1_approved_1 <-> 189
c tau_1_1_approved_0 <-> 190
c tau_1_0_approved_1 <-> 191
c tau_1_0_approved_0 <-> 192
c tau_0_3_approved_1 <-> 230
c tau_0_3_approved_0 <-> 231
c tau_0_3_1 <-> 232
c tau_0_2_approved_1 <-> 233
c tau_0_2_approved_0 <-> 234
c tau_0_2_1 <-> 235
c tau_0_1_approved_1 <-> 236
c tau_0_1_approved_0 <-> 237
c tau_0_1_1 <-> 238
c tau_0_0_approved_1 <-> 239
c tau_0_0_approved_0 <-> 240
c tau_0_0_1 <-> 241
c lam_1_credit_score <-> 255
c lam_1_dependents <-> 257
c lam_1_monthly_income <-> 259
c lam_1_age <-> 260
c lam_0_credit_score <-> 274
c lam_0_dependents <-> 276
c lam_0_monthly_income <-> 278
c lam_0_age <-> 279
c phi_Gamma_val <-> 422
c credit_score_P48300 <-> 424
c monthly_income_P291189 <-> 425
c age_P2800 <-> 426
c pi_approved_1 <-> 429
c approved_P100 <-> 429
c credit_score_P43000 <-> 430
c monthly_income_P975883 <-> 431
c age_P7000 <-> 432
c credit_score_P59900 <-> 435
c monthly_income_P404932 <-> 436
c age_P3900 <-> 437
c credit_score_P56300 <-> 440
c dependents_P100 <-> 441
c monthly_income_P236829 <-> 442
c age_P4800 <-> 443
c credit_score_P67400 <-> 446
c dependents_P400 <-> 447
c monthly_income_P285564 <-> 448
c age_P5100 <-> 449
c credit_score_P31400 <-> 452
c monthly_income_P778466 <-> 453
c age_P3300 <-> 454
c credit_score_P53700 <-> 457
c monthly_income_P451407 <-> 458
c age_P2600 <-> 459
c credit_score_P40800 <-> 462
c dependents_P200 <-> 463
c monthly_income_P296102 <-> 464
c age_P3600 <-> 465
c credit_score_P58700 <-> 468
c monthly_income_P181581 <-> 469
c age_P4700 <-> 470
c pi_approved_0 <-> 472
c approved_P0 <-> 472
c credit_score_P65600 <-> 473
c dependents_P600 <-> 474
c monthly_income_P730222 <-> 475
c age_P3100 <-> 476
p cnf 476 1283
1 0
2 -3 0
2 -8 0
-2 8 3 0
-3 4 0
-3 61 0
3 -61 -4 0
-4 5 0
-4 255 0
4 -255 -5 0
5 -6 0
5 -66 0
-5 66 6 0
6 -7 0
6 -70 0
-6 70 7 0
7 -22 0
7 -56 0
-7 56 22 0
8 -9 0
8 -14 0
-8 14 9 0
-9 10 0
-9 89 0
9 -89 -10 0
-10 11 0
-10 255 0
10 -255 -11 0
11 -12 0
11 -94 0
-11 94 12 0
12 -13 0
12 -47 0
-12 47 13 0
13 -74 0
13 -78 0
-13 78 74 0
14 -15 0
14 -23 0
-14 23 15 0
-15 16 0
-15 61 0
15 -61 -16 0
-16 17 0
-16 257 0
16 -257 -17 0
17 -18 0
17 -94 0
-17 94 18 0
18 -19 0
18 -47 0
-18 47 19 0
19 -20 0
19 -66 0
-19 66 20 0
20 -21 0
20 -56 0
-20 56 21 0
21 -22 0
21 -74 0
-21 74 22 0
22 -81 0
22 -97 0
-22 97 81 0
23 -24 0
23 -27 0
-23 27 24 0
-24 25 0
-24 89 0
24 -89 -25 0
-25 26 0
-25 257 0
25 -257 -26 0
26 -70 0
26 -78 0
-26 78 70 0
27 -28 0
27 -32 0
-27 32 28 0
-28 29 0
-28 61 0
28 -61 -29 0
-29 30 0
-29 259 0
29 -259 -30 0
30 -31 0
30 -47 0
-30 47 31 0
31 -74 0
31 -85 0
-31 85 74 0
32 -33 0
32 -41 0
-32 41 33 0
-33 34 0
-33 89 0
33 -89 -34 0
-34 35 0
-34 259 0
34 -259 -35 0
35 -36 0
35 -94 0
-35 94 36 0
36 -37 0
36 -66 0
-36 66 37 0
37 -38 0
37 -70 0
-37 70 38 0
38 -39 0
38 -56 0
-38 56 39 0
39 -40 0
39 -97 0
-39 97 40 0
40 -78 0
40 -82 0
-40 82 78 0
41 -42 0
41 -50 0
-41 50 42 0
-42 43 0
-42 46 0
42 -46 -43 0
-43 44 0
-43 45 0
43 -45 -44 0
44 185 0
44 -429 0
-44 429 -185 0
45 186 0
45 -472 0
-45 472 -186 0
-46 47 0
-46 260 0
46 -260 -47 0
-47 48 0
-47 430 0
47 -430 -48 0
-48 49 0
-48 474 0
48 -474 -49 0
-49 431 0
-49 432 0
49 -432 -431 0
50 -51 0
50 -59 0
-50 59 51 0
-51 52 0
-51 55 0
51 -55 -52 0
-52 53 0
-52 54 0
52 -54 -53 0
53 187 0
53 -429 0
-53 429 -187 0
54 188 0
54 -472 0
-54 472 -188 0
-55 56 0
-55 260 0
55 -260 -56 0
-56 57 0
-56 446 0
56 -446 -57 0
-57 58 0
-57 447 0
57 -447 -58 0
-58 448 0
-58 449 0
58 -449 -448 0
59 -60 0
59 -88 0
-59 88 60 0
-60 61 0
-60 64 0
60 -64 -61 0
-61 62 0
-61 63 0
61 -63 -62 0
62 189 0
62 -429 0
-62 429 -189 0
63 190 0
63 -472 0
-63 472 -190 0
-64 65 0
-64 260 0
64 -260 -65 0
65 -66 0
65 -69 0
-65 69 66 0
-66 67 0
-66 435 0
66 -435 -67 0
-67 68 0
-67 474 0
67 -474 -68 0
-68 436 0
-68 437 0
68 -437 -436 0
69 -70 0
69 -73 0
-69 73 70 0
-70 71 0
-70 440 0
70 -440 -71 0
-71 72 0
-71 441 0
71 -441 -72 0
-72 442 0
-72 443 0
72 -443 -442 0
73 -74 0
73 -77 0
-73 77 74 0
-74 75 0
-74 452 0
74 -452 -75 0
-75 76 0
-75 474 0
75 -474 -76 0
-76 453 0
-76 454 0
76 -454 -453 0
77 -78 0
77 -81 0
-77 81 78 0
-78 79 0
-78 462 0
78 -462 -79 0
-79 80 0
-79 463 0
79 -463 -80 0
-80 464 0
-80 465 0
80 -465 -464 0
81 -82 0
81 -85 0
-81 85 82 0
-82 83 0
-82 468 0
82 -468 -83 0
-83 84 0
-83 474 0
83 -474 -84 0
-84 469 0
-84 470 0
84 -470 -469 0
-85 86 0
-85 473 0
85 -473 -86 0
-86 87 0
-86 474 0
86 -474 -87 0
-87 475 0
-87 476 0
87 -476 -475 0
-88 89 0
-88 92 0
88 -92 -89 0
-89 90 0
-89 91 0
89 -91 -90 0
90 191 0
90 -429 0
-90 429 -191 0
91 192 0
91 -472 0
-91 472 -192 0
-92 93 0
-92 260 0
92 -260 -93 0
93 -94 0
93 -97 0
-93 97 94 0
-94 95 0
-94 424 0
94 -424 -95 0
-95 96 0
-95 474 0
95 -474 -96 0
-96 425 0
-96 426 0
96 -426 -425 0
-97 98 0
-97 457 0
97 -457 -98 0
-98 99 0
-98 474 0
98 -474 -99 0
-99 458 0
-99 459 0
99 -459 -458 0
100 -101 0
100 -103 0
-100 103 101 0
100 0
-101 102 0
-101 136 0
101 -136 -102 0
-102 5 0
-102 274 0
102 -274 -5 0
103 -104 0
103 -106 0
-103 106 104 0
-104 105 0
-104 143 0
104 -143 -105 0
-105 11 0
-105 274 0
105 -274 -11 0
106 -107 0
106 -109 0
-106 109 107 0
-107 108 0
-107 136 0
107 -136 -108 0
-108 17 0
-108 276 0
108 -276 -17 0
109 -110 0
109 -112 0
-109 112 110 0
-110 111 0
-110 143 0
110 -143 -111 0
-111 26 0
-111 276 0
111 -276 -26 0
112 -113 0
112 -115 0
-112 115 113 0
-113 114 0
-113 136 0
113 -136 -114 0
-114 30 0
-114 278 0
114 -278 -30 0
115 -116 0
115 -118 0
-115 118 116 0
-116 117 0
-116 143 0
116 -143 -117 0
-117 35 0
-117 278 0
117 -278 -35 0
118 -119 0
118 -126 0
-118 126 119 0
-119 120 0
-119 125 0
119 -125 -120 0
-120 121 0
-120 122 0
120 -122 -121 0
121 230 0
121 -429 0
-121 429 -230 0
-122 123 0
-122 124 0
122 -124 -123 0
123 231 0
123 -472 0
-123 472 -231 0
124 -2 0
124 232 0
-124 -232 2 0
-125 47 0
-125 279 0
125 -279 -47 0
126 -127 0
126 -134 0
-126 134 127 0
-127 128 0
-127 133 0
127 -133 -128 0
-128 129 0
-128 130 0
128 -130 -129 0
129 233 0
129 -429 0
-129 429 -233 0
-130 131 0
-130 132 0
130 -132 -131 0
131 234 0
131 -472 0
-131 472 -234 0
132 -2 0
132 235 0
-132 -235 2 0
-133 56 0
-133 279 0
133 -279 -56 0
134 -135 0
134 -142 0
-134 142 135 0
-135 136 0
-135 141 0
135 -141 -136 0
-136 137 0
-136 138 0
136 -138 -137 0
137 236 0
137 -429 0
-137 429 -236 0
-138 139 0
-138 140 0
138 -140 -139 0
139 237 0
139 -472 0
-139 472 -237 0
140 -2 0
140 238 0
-140 -238 2 0
-141 65 0
-141 279 0
141 -279 -65 0
-142 143 0
-142 148 0
142 -148 -143 0
-143 144 0
-143 145 0
143 -145 -144 0
144 239 0
144 -429 0
-144 429 -239 0
-145 146 0
-145 147 0
145 -147 -146 0
146 240 0
146 -472 0
-146 472 -240 0
147 -2 0
147 241 0
-147 -241 2 0
-148 93 0
-148 279 0
148 -279 -93 0
149 255 0
149 -150 0
-149 150 -255 0
149 0
-150 -185 0
-150 -186 0
150 186 185 0
151 257 0
151 -152 0
-151 152 -257 0
151 0
-152 -185 0
-152 153 0
152 -153 185 0
-153 -186 0
-153 154 0
153 -154 186 0
-154 -187 0
-154 -188 0
154 188 187 0
155 -152 0
155 259 0
-155 -259 152 0
155 0
156 274 0
156 -157 0
-156 157 -274 0
156 0
-157 -230 0
-157 158 0
157 -158 230 0
-158 -231 0
-158 -232 0
158 232 231 0
159 276 0
159 -160 0
-159 160 -276 0
159 0
-160 -230 0
-160 161 0
160 -161 230 0
-161 -231 0
-161 162 0
161 -162 231 0
-162 -232 0
-162 163 0
162 -163 232 0
-163 -233 0
-163 164 0
163 -164 233 0
-164 -234 0
-164 -235 0
164 235 234 0
165 -160 0
165 278 0
-165 -278 160 0
165 0
166 255 0
166 -167 0
-166 167 -255 0
166 0
-167 168 0
-167 171 0
167 -171 -168 0
168 -169 0
168 -170 0
-168 170 169 0
-169 -188 0
-169 187 0
169 -187 188 0
-170 -187 0
-170 188 0
170 -188 187 0
-171 172 0
-171 175 0
171 -175 -172 0
172 -173 0
172 -174 0
-172 174 173 0
-173 -190 0
-173 189 0
173 -189 190 0
-174 -189 0
-174 190 0
174 -190 189 0
175 -176 0
175 -177 0
-175 177 176 0
-176 -192 0
-176 191 0
176 -191 192 0
-177 -191 0
-177 192 0
177 -192 191 0
178 257 0
178 -171 0
-178 171 -257 0
178 0
179 259 0
179 -171 0
-179 171 -259 0
179 0
180 260 0
180 -181 0
-180 181 -260 0
180 0
-181 167 0
-181 182 0
181 -182 -167 0
182 -183 0
182 -184 0
-182 184 183 0
-183 -186 0
-183 185 0
183 -185 186 0
-184 -185 0
-184 186 0
184 -186 185 0
193 274 0
193 -194 0
-193 194 -274 0
193 0
-194 195 0
-194 202 0
194 -202 -195 0
195 -196 0
195 -200 0
-195 200 196 0
196 -197 0
196 -198 0
-196 198 197 0
-197 164 0
-197 233 0
197 -233 -164 0
-198 199 0
-198 234 0
198 -234 -199 0
-199 -233 0
-199 -235 0
199 235 233 0
-200 201 0
-200 235 0
200 -235 -201 0
-201 -233 0
-201 -234 0
201 234 233 0
-202 203 0
-202 211 0
202 -211 -203 0
203 -204 0
203 -209 0
-203 209 204 0
204 -205 0
204 -207 0
-204 207 205 0
-205 206 0
-205 236 0
205 -236 -206 0
-206 -237 0
-206 -238 0
206 238 237 0
-207 208 0
-207 237 0
207 -237 -208 0
-208 -236 0
-208 -238 0
208 238 236 0
-209 210 0
-209 238 0
209 -238 -210 0
-210 -236 0
-210 -237 0
210 237 236 0
211 -212 0
211 -217 0
-211 217 212 0
212 -213 0
212 -215 0
-212 215 213 0
-213 214 0
-213 239 0
213 -239 -214 0
-214 -240 0
-214 -241 0
214 241 240 0
-215 216 0
-215 240 0
215 -240 -216 0
-216 -239 0
-216 -241 0
216 241 239 0
-217 218 0
-217 241 0
217 -241 -218 0
-218 -239 0
-218 -240 0
218 240 239 0
219 276 0
219 -202 0
-219 202 -276 0
219 0
220 278 0
220 -202 0
-220 202 -278 0
220 0
221 279 0
221 -222 0
-221 222 -279 0
221 0
-222 194 0
-222 223 0
222 -223 -194 0
223 -224 0
223 -228 0
-223 228 224 0
224 -225 0
224 -226 0
-224 226 225 0
-225 158 0
-225 230 0
225 -230 -158 0
-226 227 0
-226 231 0
226 -231 -227 0
-227 -230 0
-227 -232 0
227 232 230 0
-228 229 0
-228 232 0
228 -232 -229 0
-229 -230 0
-229 -231 0
229 231 230 0
242 -243 0
242 -246 0
-242 246 243 0
242 0
-243 -257 0
-243 244 0
243 -244 257 0
-244 -259 0
-244 245 0
244 -245 259 0
-245 -260 0
-245 255 0
245 -255 260 0
246 -247 0
246 -250 0
-246 250 247 0
-247 -255 0
-247 248 0
247 -248 255 0
-248 -259 0
-248 249 0
248 -249 259 0
-249 -260 0
-249 257 0
249 -257 260 0
250 -251 0
250 -254 0
-250 254 251 0
-251 -255 0
-251 252 0
251 -252 255 0
-252 -257 0
-252 253 0
252 -253 257 0
-253 -260 0
-253 259 0
253 -259 260 0
-254 -255 0
-254 256 0
254 -256 255 0
-256 -257 0
-256 258 0
256 -258 257 0
-258 -259 0
-258 260 0
258 -260 259 0
261 -262 0
261 -265 0
-261 265 262 0
261 0
-262 -276 0
-262 263 0
262 -263 276 0
-263 -278 0
-263 264 0
263 -264 278 0
-264 -279 0
-264 274 0
264 -274 279 0
265 -266 0
265 -269 0
-265 269 266 0
-266 -274 0
-266 267 0
266 -267 274 0
-267 -278 0
-267 268 0
267 -268 278 0
-268 -279 0
-268 276 0
268 -276 279 0
269 -270 0
269 -273 0
-269 273 270 0
-270 -274 0
-270 271 0
270 -271 274 0
-271 -276 0
-271 272 0
271 -272 276 0
-272 -279 0
-272 278 0
272 -278 279 0
-273 -274 0
-273 275 0
273 -275 274 0
-275 -276 0
-275 277 0
275 -277 276 0
-277 -278 0
-277 279 0
277 -279 278 0
280 472 0
280 429 0
-280 -429 -472 0
280 0
281 430 0
281 424 0
-281 -424 -430 0
281 0
282 435 0
282 -283 0
-282 283 -435 0
282 0
-283 -430 0
-283 -424 0
283 424 430 0
284 440 0
284 -285 0
-284 285 -440 0
284 0
-285 -424 0
-285 286 0
285 -286 424 0
-286 -430 0
-286 -435 0
286 435 430 0
287 446 0
287 -288 0
-287 288 -446 0
287 0
-288 -424 0
-288 289 0
288 -289 424 0
-289 -430 0
-289 290 0
289 -290 430 0
-290 -435 0
-290 -440 0
290 440 435 0
291 452 0
291 -292 0
-291 292 -452 0
291 0
-292 -424 0
-292 293 0
292 -293 424 0
-293 -430 0
-293 294 0
293 -294 430 0
-294 -435 0
-294 295 0
294 -295 435 0
-295 -440 0
-295 -446 0
295 446 440 0
296 457 0
296 -297 0
-296 297 -457 0
296 0
-297 -424 0
-297 298 0
297 -298 424 0
-298 -430 0
-298 299 0
298 -299 430 0
-299 -435 0
-299 300 0
299 -300 435 0
-300 -440 0
-300 301 0
300 -301 440 0
-301 -446 0
-301 -452 0
301 452 446 0
302 462 0
302 -303 0
-302 303 -462 0
302 0
-303 -424 0
-303 304 0
303 -304 424 0
-304 -430 0
-304 305 0
304 -305 430 0
-305 -435 0
-305 306 0
305 -306 435 0
-306 -440 0
-306 307 0
306 -307 440 0
-307 -446 0
-307 308 0
307 -308 446 0
-308 -452 0
-308 -457 0
308 457 452 0
309 468 0
309 -310 0
-309 310 -468 0
309 0
-310 -424 0
-310 311 0
310 -311 424 0
-311 -430 0
-311 312 0
311 -312 430 0
-312 -435 0
-312 313 0
312 -313 435 0
-313 -440 0
-313 314 0
313 -314 440 0
-314 -446 0
-314 315 0
314 -315 446 0
-315 -452 0
-315 316 0
315 -316 452 0
-316 -457 0
-316 -462 0
316 462 457 0
317 473 0
317 -318 0
-317 318 -473 0
317 0
-318 -424 0
-318 319 0
318 -319 424 0
-319 -430 0
-319 320 0
319 -320 430 0
-320 -435 0
-320 321 0
320 -321 435 0
-321 -440 0
-321 322 0
321 -322 440 0
-322 -446 0
-322 323 0
322 -323 446 0
-323 -452 0
-323 324 0
323 -324 452 0
-324 -457 0
-324 325 0
324 -325 457 0
-325 -462 0
-325 -468 0
325 468 462 0
326 447 0
326 441 0
-326 -441 -447 0
326 0
327 463 0
327 -328 0
-327 328 -463 0
327 0
-328 -447 0
-328 -441 0
328 441 447 0
329 474 0
329 -330 0
-329 330 -474 0
329 0
-330 -441 0
-330 331 0
330 -331 441 0
-331 -447 0
-331 -463 0
331 463 447 0
332 431 0
332 425 0
-332 -425 -431 0
332 0
333 436 0
333 -334 0
-333 334 -436 0
333 0
-334 -431 0
-334 -425 0
334 425 431 0
335 442 0
335 -336 0
-335 336 -442 0
335 0
-336 -425 0
-336 337 0
336 -337 425 0
-337 -431 0
-337 -436 0
337 436 431 0
338 448 0
338 -339 0
-338 339 -448 0
338 0
-339 -425 0
-339 340 0
339 -340 425 0
-340 -431 0
-340 341 0
340 -341 431 0
-341 -436 0
-341 -442 0
341 442 436 0
342 453 0
342 -343 0
-342 343 -453 0
342 0
-343 -425 0
-343 344 0
343 -344 425 0
-344 -431 0
-344 345 0
344 -345 431 0
-345 -436 0
-345 346 0
345 -346 436 0
-346 -442 0
-346 -448 0
346 448 442 0
347 458 0
347 -348 0
-347 348 -458 0
347 0
-348 -425 0
-348 349 0
348 -349 425 0
-349 -431 0
-349 350 0
349 -350 431 0
-350 -436 0
-350 351 0
350 -351 436 0
-351 -442 0
-351 352 0
351 -352 442 0
-352 -448 0
-352 -453 0
352 453 448 0
353 464 0
353 -354 0
-353 354 -464 0
353 0
-354 -425 0
-354 355 0
354 -355 425 0
-355 -431 0
-355 356 0
355 -356 431 0
-356 -436 0
-356 357 0
356 -357 436 0
-357 -442 0
-357 358 0
357 -358 442 0
-358 -448 0
-358 359 0
358 -359 448 0
-359 -453 0
-359 -458 0
359 458 453 0
360 469 0
360 -361 0
-360 361 -469 0
360 0
-361 -425 0
-361 362 0
361 -362 425 0
-362 -431 0
-362 363 0
362 -363 431 0
-363 -436 0
-363 364 0
363 -364 436 0
-364 -442 0
-364 365 0
364 -365 442 0
-365 -448 0
-365 366 0
365 -366 448 0
-366 -453 0
-366 367 0
366 -367 453 0
-367 -458 0
-367 -464 0
367 464 458 0
368 475 0
368 -369 0
-368 369 -475 0
368 0
-369 -425 0
-369 370 0
369 -370 425 0
-370 -431 0
-370 371 0
370 -371 431 0
-371 -436 0
-371 372 0
371 -372 436 0
-372 -442 0
-372 373 0
372 -373 442 0
-373 -448 0
-373 374 0
373 -374 448 0
-374 -453 0
-374 375 0
374 -375 453 0
-375 -458 0
-375 376 0
375 -376 458 0
-376 -464 0
-376 -469 0
376 469 464 0
377 432 0
377 426 0
-377 -426 -432 0
377 0
378 437 0
378 -379 0
-378 379 -437 0
378 0
-379 -432 0
-379 -426 0
379 426 432 0
380 443 0
380 -381 0
-380 381 -443 0
380 0
-381 -426 0
-381 382 0
381 -382 426 0
-382 -432 0
-382 -437 0
382 437 432 0
383 449 0
383 -384 0
-383 384 -449 0
383 0
-384 -426 0
-384 385 0
384 -385 426 0
-385 -432 0
-385 386 0
385 -386 432 0
-386 -437 0
-386 -443 0
386 443 437 0
387 454 0
387 -388 0
-387 388 -454 0
387 0
-388 -426 0
-388 389 0
388 -389 426 0
-389 -432 0
-389 390 0
389 -390 432 0
-390 -437 0
-390 391 0
390 -391 437 0
-391 -443 0
-391 -449 0
391 449 443 0
392 459 0
392 -393 0
-392 393 -459 0
392 0
-393 -426 0
-393 394 0
393 -394 426 0
-394 -432 0
-394 395 0
394 -395 432 0
-395 -437 0
-395 396 0
395 -396 437 0
-396 -443 0
-396 397 0
396 -397 443 0
-397 -449 0
-397 -454 0
397 454 449 0
398 465 0
398 -399 0
-398 399 -465 0
398 0
-399 -426 0
-399 400 0
399 -400 426 0
-400 -432 0
-400 401 0
400 -401 432 0
-401 -437 0
-401 402 0
401 -402 437 0
-402 -443 0
-402 403 0
402 -403 443 0
-403 -449 0
-403 404 0
403 -404 449 0
-404 -454 0
-404 -459 0
404 459 454 0
405 470 0
405 -406 0
-405 406 -470 0
405 0
-406 -426 0
-406 407 0
406 -407 426 0
-407 -432 0
-407 408 0
407 -408 432 0
-408 -437 0
-408 409 0
408 -409 437 0
-409 -443 0
-409 410 0
409 -410 443 0
-410 -449 0
-410 411 0
410 -411 449 0
-411 -454 0
-411 412 0
411 -412 454 0
-412 -459 0
-412 -465 0
412 465 459 0
413 476 0
413 -414 0
-413 414 -476 0
413 0
-414 -426 0
-414 415 0
414 -415 426 0
-415 -432 0
-415 416 0
415 -416 432 0
-416 -437 0
-416 417 0
416 -417 437 0
-417 -443 0
-417 418 0
417 -418 443 0
-418 -449 0
-418 419 0
418 -419 449 0
-419 -454 0
-419 420 0
419 -420 454 0
-420 -459 0
-420 421 0
420 -421 459 0
-421 -465 0
-421 -470 0
421 470 465 0
422 -423 0
422 -427 0
-422 427 423 0
422 0
-423 94 0
-423 472 0
423 -472 -94 0
427 -428 0
427 -433 0
-427 433 428 0
-428 47 0
-428 429 0
428 -429 -47 0
433 -434 0
433 -438 0
-433 438 434 0
-434 66 0
-434 472 0
434 -472 -66 0
438 -439 0
438 -444 0
-438 444 439 0
-439 70 0
-439 472 0
439 -472 -70 0
444 -445 0
444 -450 0
-444 450 445 0
-445 56 0
-445 472 0
445 -472 -56 0
450 -451 0
450 -455 0
-450 455 451 0
-451 74 0
-451 472 0
451 -472 -74 0
455 -456 0
455 -460 0
-455 460 456 0
-456 97 0
-456 472 0
456 -472 -97 0
460 -461 0
460 -466 0
-460 466 461 0
-461 78 0
-461 472 0
461 -472 -78 0
466 -467 0
466 -471 0
-466 471 467 0
-467 82 0
-467 472 0
467 -472 -82 0
-471 85 0
-471 472 0
471 -472 -85 0
